/*********************************************
 * OPL 22.1.1.0 Data
 * Author: gianc
 * Creation Date: 6 jun. 2024 at 17:30:55
 *********************************************/
n = 5; //cantidad de nodos
e = 8; //cantidad de aristas
weights = [<1,1>,
<2,3>,
<3,2>,
<4,3>,
<5,2>];

edges = [<1,2>,
<1,3>,
<1,5>,
<2,1>,
<3,1>
<4,5>,
<5,1>,
<5,4>];